patients = [
	(admissionDay: 0, assignedOT: t0, assignedRoom: r0) 
	(admissionDay: 0, assignedOT: t0, assignedRoom: r0) 
	(admissionDay: 0, assignedOT: t0, assignedRoom: r0) 
	(admissionDay: 0, assignedOT: t0, assignedRoom: r0) 
	(admissionDay: 0, assignedOT: t0, assignedRoom: r0) 
	(admissionDay: 0, assignedOT: t0, assignedRoom: r0) 
	(admissionDay: 0, assignedOT: t0, assignedRoom: r0) 
	(admissionDay: 0, assignedOT: t0, assignedRoom: r0) 
	(admissionDay: 0, assignedOT: t0, assignedRoom: r0) 
	(admissionDay: 0, assignedOT: t0, assignedRoom: r0) 
	(admissionDay: 0, assignedOT: t0, assignedRoom: r0) 
	(admissionDay: 0, assignedOT: t0, assignedRoom: r0) 
	(admissionDay: 0, assignedOT: t0, assignedRoom: r0) 
	(admissionDay: 0, assignedOT: t0, assignedRoom: r0) 
	(admissionDay: 0, assignedOT: t0, assignedRoom: r0) 
	(admissionDay: 0, assignedOT: t0, assignedRoom: r0) 
	(admissionDay: 0, assignedOT: t0, assignedRoom: r0) 
	(admissionDay: 0, assignedOT: t0, assignedRoom: r0) 
	(admissionDay: 0, assignedOT: t0, assignedRoom: r0) 
	(admissionDay: 0, assignedOT: t0, assignedRoom: r0) 
	(admissionDay: 0, assignedOT: t0, assignedRoom: r0) 
	(admissionDay: 0, assignedOT: t0, assignedRoom: r0) 
	(admissionDay: 0, assignedOT: t0, assignedRoom: r0) 
	(admissionDay: 0, assignedOT: t0, assignedRoom: r0) 
	(admissionDay: 0, assignedOT: t0, assignedRoom: r0) 
	(admissionDay: 0, assignedOT: t0, assignedRoom: r0) 
	(admissionDay: 0, assignedOT: t0, assignedRoom: r0) 
	(admissionDay: 0, assignedOT: t0, assignedRoom: r0) 
];
nurses = [
	(
 (assignments: [(assignedToRooms: [false, false, false, false], day: 0, shift: early), (assignedToRooms: [false, false, false, false], day: 0, shift: early), (assignedToRooms: [false, false, false, false], day: 0, shift: early), (assignedToRooms: [false, false, false, false], day: 0, shift: early), (assignedToRooms: [false, false, false, false], day: 0, shift: early), (assignedToRooms: [false, false, false, false], day: 0, shift: early), (assignedToRooms: [false, false, false, false], day: 0, shift: early), (assignedToRooms: [false, false, false, false], day: 0, shift: early), (assignedToRooms: [false, false, false, false], day: 0, shift: early), (assignedToRooms: [false, false, false, false], day: 0, shift: early), (assignedToRooms: [false, false, false, false], day: 0, shift: early), (assignedToRooms: [false, false, false, false], day: 0, shift: early), (assignedToRooms: [false, false, false, false], day: 0, shift: early), (assignedToRooms: [false, false, false, false], day: 0, shift: early)]) 
	(
 (assignments: [(assignedToRooms: [false, false, false, false], day: 0, shift: early), (assignedToRooms: [false, false, false, false], day: 0, shift: early), (assignedToRooms: [false, false, false, false], day: 0, shift: early), (assignedToRooms: [false, false, false, false], day: 0, shift: early), (assignedToRooms: [false, false, false, false], day: 0, shift: early), (assignedToRooms: [false, false, false, false], day: 0, shift: early), (assignedToRooms: [false, false, false, false], day: 0, shift: early), (assignedToRooms: [false, false, false, false], day: 0, shift: early), (assignedToRooms: [false, false, false, false], day: 0, shift: early), (assignedToRooms: [false, false, false, false], day: 0, shift: early), (assignedToRooms: [false, false, false, false], day: 0, shift: early), (assignedToRooms: [false, false, false, false], day: 0, shift: early), (assignedToRooms: [false, false, false, false], day: 0, shift: early), (assignedToRooms: [false, false, false, false], day: 0, shift: early)]) 
	(
 (assignments: [(assignedToRooms: [false, false, false, false], day: 0, shift: early), (assignedToRooms: [false, false, false, false], day: 0, shift: early), (assignedToRooms: [false, false, false, false], day: 0, shift: early), (assignedToRooms: [false, false, false, false], day: 0, shift: early), (assignedToRooms: [false, false, false, false], day: 0, shift: early), (assignedToRooms: [false, false, false, false], day: 0, shift: early), (assignedToRooms: [false, false, false, false], day: 0, shift: early), (assignedToRooms: [false, false, false, false], day: 0, shift: early), (assignedToRooms: [false, false, false, false], day: 0, shift: early), (assignedToRooms: [false, false, false, false], day: 0, shift: early), (assignedToRooms: [false, false, false, false], day: 0, shift: early), (assignedToRooms: [false, false, false, false], day: 0, shift: early), (assignedToRooms: [false, false, false, false], day: 0, shift: early), (assignedToRooms: [false, false, false, false], day: 0, shift: early)]) 
	(
 (assignments: [(assignedToRooms: [false, false, false, false], day: 0, shift: early), (assignedToRooms: [false, false, false, false], day: 0, shift: early), (assignedToRooms: [false, false, false, false], day: 0, shift: early), (assignedToRooms: [false, false, false, false], day: 0, shift: early), (assignedToRooms: [false, false, false, false], day: 0, shift: early), (assignedToRooms: [false, false, false, false], day: 0, shift: early), (assignedToRooms: [false, false, false, false], day: 0, shift: early), (assignedToRooms: [false, false, false, false], day: 0, shift: early), (assignedToRooms: [false, false, false, false], day: 0, shift: early), (assignedToRooms: [false, false, false, false], day: 0, shift: early), (assignedToRooms: [false, false, false, false], day: 0, shift: early), (assignedToRooms: [false, false, false, false], day: 0, shift: early), (assignedToRooms: [false, false, false, false], day: 0, shift: early), (assignedToRooms: [false, false, false, false], day: 0, shift: early)]) 
	(
 (assignments: [(assignedToRooms: [false, false, false, false], day: 0, shift: early), (assignedToRooms: [false, false, false, false], day: 0, shift: early), (assignedToRooms: [false, false, false, false], day: 0, shift: early), (assignedToRooms: [false, false, false, false], day: 0, shift: early), (assignedToRooms: [false, false, false, false], day: 0, shift: early), (assignedToRooms: [false, false, false, false], day: 0, shift: early), (assignedToRooms: [false, false, false, false], day: 0, shift: early), (assignedToRooms: [false, false, false, false], day: 0, shift: early), (assignedToRooms: [false, false, false, false], day: 0, shift: early), (assignedToRooms: [false, false, false, false], day: 0, shift: early), (assignedToRooms: [false, false, false, false], day: 0, shift: early), (assignedToRooms: [false, false, false, false], day: 0, shift: early), (assignedToRooms: [false, false, false, false], day: 0, shift: early), (assignedToRooms: [false, false, false, false], day: 0, shift: early)]) 
	(
 (assignments: [(assignedToRooms: [false, false, false, false], day: 0, shift: early), (assignedToRooms: [false, false, false, false], day: 0, shift: early), (assignedToRooms: [false, false, false, false], day: 0, shift: early), (assignedToRooms: [false, false, false, false], day: 0, shift: early), (assignedToRooms: [false, false, false, false], day: 0, shift: early), (assignedToRooms: [false, false, false, false], day: 0, shift: early), (assignedToRooms: [false, false, false, false], day: 0, shift: early), (assignedToRooms: [false, false, false, false], day: 0, shift: early), (assignedToRooms: [false, false, false, false], day: 0, shift: early), (assignedToRooms: [false, false, false, false], day: 0, shift: early), (assignedToRooms: [false, false, false, false], day: 0, shift: early), (assignedToRooms: [false, false, false, false], day: 0, shift: early), (assignedToRooms: [false, false, false, false], day: 0, shift: early), (assignedToRooms: [false, false, false, false], day: 0, shift: early)]) 
	(
 (assignments: [(assignedToRooms: [false, false, false, false], day: 0, shift: early), (assignedToRooms: [false, false, false, false], day: 0, shift: early), (assignedToRooms: [false, false, false, false], day: 0, shift: early), (assignedToRooms: [false, false, false, false], day: 0, shift: early), (assignedToRooms: [false, false, false, false], day: 0, shift: early), (assignedToRooms: [false, false, false, false], day: 0, shift: early), (assignedToRooms: [false, false, false, false], day: 0, shift: early), (assignedToRooms: [false, false, false, false], day: 0, shift: early), (assignedToRooms: [false, false, false, false], day: 0, shift: early), (assignedToRooms: [false, false, false, false], day: 0, shift: early), (assignedToRooms: [false, false, false, false], day: 0, shift: early), (assignedToRooms: [false, false, false, false], day: 0, shift: early), (assignedToRooms: [false, false, false, false], day: 0, shift: early), (assignedToRooms: [false, false, false, false], day: 0, shift: early)]) 
	(
 (assignments: [(assignedToRooms: [false, false, false, false], day: 0, shift: early), (assignedToRooms: [false, false, false, false], day: 0, shift: early), (assignedToRooms: [false, false, false, false], day: 0, shift: early), (assignedToRooms: [false, false, false, false], day: 0, shift: early), (assignedToRooms: [false, false, false, false], day: 0, shift: early), (assignedToRooms: [false, false, false, false], day: 0, shift: early), (assignedToRooms: [false, false, false, false], day: 0, shift: early), (assignedToRooms: [false, false, false, false], day: 0, shift: early), (assignedToRooms: [false, false, false, false], day: 0, shift: early), (assignedToRooms: [false, false, false, false], day: 0, shift: early), (assignedToRooms: [false, false, false, false], day: 0, shift: early), (assignedToRooms: [false, false, false, false], day: 0, shift: early), (assignedToRooms: [false, false, false, false], day: 0, shift: early), (assignedToRooms: [false, false, false, false], day: 0, shift: early)]) 
	(
 (assignments: [(assignedToRooms: [false, false, false, false], day: 0, shift: early), (assignedToRooms: [false, false, false, false], day: 0, shift: early), (assignedToRooms: [false, false, false, false], day: 0, shift: early), (assignedToRooms: [false, false, false, false], day: 0, shift: early), (assignedToRooms: [false, false, false, false], day: 0, shift: early), (assignedToRooms: [false, false, false, false], day: 0, shift: early), (assignedToRooms: [false, false, false, false], day: 0, shift: early), (assignedToRooms: [false, false, false, false], day: 0, shift: early), (assignedToRooms: [false, false, false, false], day: 0, shift: early), (assignedToRooms: [false, false, false, false], day: 0, shift: early), (assignedToRooms: [false, false, false, false], day: 0, shift: early), (assignedToRooms: [false, false, false, false], day: 0, shift: early), (assignedToRooms: [false, false, false, false], day: 0, shift: early), (assignedToRooms: [false, false, false, false], day: 0, shift: early)]) 
	(
 (assignments: [(assignedToRooms: [false, false, false, false], day: 0, shift: early), (assignedToRooms: [false, false, false, false], day: 0, shift: early), (assignedToRooms: [false, false, false, false], day: 0, shift: early), (assignedToRooms: [false, false, false, false], day: 0, shift: early), (assignedToRooms: [false, false, false, false], day: 0, shift: early), (assignedToRooms: [false, false, false, false], day: 0, shift: early), (assignedToRooms: [false, false, false, false], day: 0, shift: early), (assignedToRooms: [false, false, false, false], day: 0, shift: early), (assignedToRooms: [false, false, false, false], day: 0, shift: early), (assignedToRooms: [false, false, false, false], day: 0, shift: early), (assignedToRooms: [false, false, false, false], day: 0, shift: early), (assignedToRooms: [false, false, false, false], day: 0, shift: early), (assignedToRooms: [false, false, false, false], day: 0, shift: early), (assignedToRooms: [false, false, false, false], day: 0, shift: early)]) 
	(
 (assignments: [(assignedToRooms: [false, false, false, false], day: 0, shift: early), (assignedToRooms: [false, false, false, false], day: 0, shift: early), (assignedToRooms: [false, false, false, false], day: 0, shift: early), (assignedToRooms: [false, false, false, false], day: 0, shift: early), (assignedToRooms: [false, false, false, false], day: 0, shift: early), (assignedToRooms: [false, false, false, false], day: 0, shift: early), (assignedToRooms: [false, false, false, false], day: 0, shift: early), (assignedToRooms: [false, false, false, false], day: 0, shift: early), (assignedToRooms: [false, false, false, false], day: 0, shift: early), (assignedToRooms: [false, false, false, false], day: 0, shift: early), (assignedToRooms: [false, false, false, false], day: 0, shift: early), (assignedToRooms: [false, false, false, false], day: 0, shift: early), (assignedToRooms: [false, false, false, false], day: 0, shift: early), (assignedToRooms: [false, false, false, false], day: 0, shift: early)]) 
	(
 (assignments: [(assignedToRooms: [false, false, false, false], day: 0, shift: early), (assignedToRooms: [false, false, false, false], day: 0, shift: early), (assignedToRooms: [false, false, false, false], day: 0, shift: early), (assignedToRooms: [false, false, false, false], day: 0, shift: early), (assignedToRooms: [false, false, false, false], day: 0, shift: early), (assignedToRooms: [false, false, false, false], day: 0, shift: early), (assignedToRooms: [false, false, false, false], day: 0, shift: early), (assignedToRooms: [false, false, false, false], day: 0, shift: early), (assignedToRooms: [false, false, false, false], day: 0, shift: early), (assignedToRooms: [false, false, false, false], day: 0, shift: early), (assignedToRooms: [false, false, false, false], day: 0, shift: early), (assignedToRooms: [false, false, false, false], day: 0, shift: early), (assignedToRooms: [false, false, false, false], day: 0, shift: early), (assignedToRooms: [false, false, false, false], day: 0, shift: early)]) 
];
----------
